georg/multi-trace-encoding/example01.txt
Thread T0:
b1: x_0_t0 <- 0
b2: x_1_t0 <- pi(x_0_t0, x_0_t1, x_0_t2)
b3: assert(x_1_t0 = 0)

Thread T1:
b4: x_0_t1 <- 1

Thread T2:
b5: x_0_t2 <- 2

